
%    +-----------+
% 8  | | | | | | |
% 7  | | | | | | |
% 6  | | | | | | |
% 5  | | | | | | |
% 4  | |6| | | | |
% 3  | | |2|3|5| |
% 2  |1|1| | | | |
% 1  |1|1| |4| | |
%    +-----------+
n=6;
m=8;
h=2;
%maxT=15;
boxNumber=6;
boxSideLen = [2, 1, 1, 1, 1, 1];
boxStartX  = [1, 3, 4, 4, 5, 2];
boxStartY  = [1, 3, 3, 1, 3, 4];
